NAME : sim51.76289.tour
COMMENT : Length = 76289
COMMENT : Found by LKH [Keld Helsgaun] Tue Sep 11 17:52:30 2018
TYPE : TOUR
DIMENSION : 51
TOUR_SECTION
1
50
5
45
19
49
36
20
6
41
33
39
32
10
16
26
42
28
30
43
34
40
13
12
18
24
29
37
17
47
21
25
14
48
38
7
3
11
15
35
44
4
27
9
2
31
22
23
8
46
51
-1
EOF
